,1,2,3,4,5,6,7,8,9,10,11,12,13,14,15,16,17,18,19,20,21,22,23,24,25,26,27,28,29,30,31,32,33,34,35,36,37,38,39,40,41,42,43,44,45,46,47,48,49,50,51,52,53,54,55,56,57,58,59,60,61,62,63,64,65,66,67,68,69,70,71,72,73,74,75,76,77,78,79,80,81,82,83,84,85,86,87,88,89,90,91,92,93,94,95,96,97,98,99,100,101,102,103,104,105,106,107,108,109,110,111,112,113,114,115,116,117,118,119,120,121,122,123,124,125,126,127,128,129,130,131,132,133,134,135,136,137,138,139,140,141,142,143,144,145,146,147,148,149,150,151,152,153,154,155,156,157,158,159,160,161,162,163,164,165,166,167,168,169,170,171,172,173,174,175,176,177,178,179,180,181,182,183,184,185,186,187,188,189,190,191,192,193,194,195,196,197,198,199,200,201,202,203,204,205,206,207,208,209,210,211,212,213,214,215,216,217,218,219,220,221,222,223,224,225,226,227,228,229,230,231,232,233,234,235,236,237,238,239,240,241,242,243,244,245,246,247,248,249,250,251,252,253,254,255,256,257,258,259,260,261,262,263,264,265,266,267,268,269,270,271,272,273,274,275,276,277,278,279,280,281,282,283,284,285,286,287,288,289,290,291,292,293,294,295,296,297,298,299,300,301,302,303,304,305,306,307,308,309,310,311,312,313,314,315,316,317,318,319,320,321,322,323,324,325,326,327,328,329,330,331,332,333,334,335,336,337,338,339,340,341,342,343,344,345,346,347,348,349,350,351,352,353,354,355,356,357,358,359,360,361,362,363,364,365,366,367,368,369,370,371,372,373,374,375,376,377,378,379,380,381,382,383,384,385,386,387,388,389,390,391,392,393,394,395,396,397,398,399,400,401,402,403,404,405,406,407,408,409,410,411,412,413,414,415,416,417,418,419,420,421,422,423,424,425,426,427,428,429,430,431,432,433,434,435,436,437,438,439,440,441,442,443,444,445,446,447,448,449,450,451,452,453,454,455,456,457,458,459,460,461,462,463,464,465,466,467,468,469,470,471,472,473,474,475,476,477,478,479,480,481,482,483,484,485,486,487,488,489,490,491,492,493,494,495,496,497,498,499,500,501,502,503,504,505,506,507,508,509,510,511,512,513,514,515,516,517,518,519,520,521,522,523,524,525,526,527,528,529,530,531,532,533,534,535,536,537,538,539,540,541,542,543,544,545,546,547,548,549,550,551,552,553,554,555,556,557,558,559,560,561,562,563,564,565,566,567,568,569,570,571,572,573,574,575,576,577,578,579,580,581,582,583,584,585,586,587,588,589,590,591,592,593,594,595,596,597,598,599,600,601,602,603,604,605,606,607,608,609,610,611,612,613,614,615,616,617,618,619,620,621,622,623,624,625,626,627,628,629,630,631,632,633,634,635,636,637,638,639,640,641,642,643,644,645,646,647,648,649,650,651,652,653,654,655,656,657,658,659,660,661,662,663,664,665,666,667,668,669,670,671,672,673,674,675,676,677,678,679,680,681,682,683,684,685,686,687,688,689,690,691,692,693,694,695,696,697,698,699,700,701,702,703,704,705,706,707,708,709,710,711,712,713,714,715,716,717,718,719,720,721,722,723,724,725,726,727,728,729,730,731,732,733,734,735,736,737,738,739,740,741,742,743,744,745,746,747,748,749,750,751,752,753,754,755,756,757,758,759,760,761,762,763,764,765,766,767,768,769,770,771,772,773,774,775,776,777,778,779,780,781,782,783,784,785,786,787,788,789,790,791,792,793,794,795,796,797,798,799,800,801,802,803,804,805,806,807,808,809,810,811,812,813,814,815,816,817,818,819,820,821,822,823,824,825,826,827,828,829,830,831,832,833,834,835,836,837,838,839,840,841,842,843,844,845,846,847,848,849,850,851,852,853,854,855,856,857,858,859,860,861,862,863,864,865,866,867,868,869,870,871,872,873,874,875,876,877,878,879,880,881,882,883,884,885,886,887,888,889,890,891,892,893,894,895,896,897,898,899,900,901,902,903,904,905,906,907,908,909,910,911,912,913,914,915,916,917,918,919,920,921,922,923,924,925,926,927,928,929,930,931,932,933,934,935,936,937,938,939,940,941,942,943,944,945,946,947,948,949,950,951,952,953,954,955,956,957,958,959,960,961,962,963,964,965,966,967,968,969,970,971,972,973,974,975,976,977,978,979,980,981,982,983,984,985,986,987,988,989,990,991,992,993,994,995,996,997,998,999,1000,1001,1002,1003,1004,1005,1006,1007,1008,1009,1010,1011,1012,1013,1014,1015,1016,1017,1018,1019,1020,1021,1022,1023,1024,1025,1026,1027,1028,1029,1030,1031,1032,1033,1034,1035,1036,1037,1038,1039,1040,1041,1042,1043,1044,1045,1046,1047,1048,1049,1050,1051,1052,1053,1054,1055,1056,1057,1058,1059,1060,1061,1062,1063,1064,1065,1066,1067,1068,1069,1070,1071,1072,1073,1074,1075,1076,1077,1078,1079,1080,1081,1082,1083,1084,1085,1086,1087,1088,1089,1090,1091,1092,1093,1094,1095,1096,1097,1098,1099,1100,1101,1102,1103,1104,1105,1106,1107,1108,1109,1110,1111,1112,1113,1114,1115,1116,1117,1118,1119,1120,1121,1122,1123,1124,1125,1126,1127,1128,1129,1130,1131,1132,1133,1134,1135,1136,1137,1138,1139,1140,1141,1142,1143,1144,1145,1146,1147,1148,1149,1150,1151,1152,1153,1154,1155,1156,1157,1158,1159,1160,1161,1162,1163,1164,1165,1166,1167,1168,1169,1170,1171,1172,1173,1174,1175,1176,1177,1178,1179,1180,1181,1182,1183,1184,1185,1186,1187,1188,1189,1190,1191,1192,1193,1194,1195,1196,1197,1198,1199,1200
1,13,6,4,5,9,8,10,28,16,14,38,40,18,18,17,23,83,22,25,36,31,77,24,61,92,50,89,45,39,63,34,59,70,52,93,54,53,51,102,113,42,112,48,50,49,99,58,65,111,86,107,110,99,86,56,120,100,74,62,89,65,84,78,104,69,72,99,75,118,96,87,79,74,109,80,84,86,120,94,87,93,115,109,92,101,88,93,113,91,98,101,106,107,108,97,111,110,106,103,107,104,112,115,114,108,108,116,114,110,111,112,113,116,120,119,118,119,0,0,0,133,124,125,126,128,142,136,135,131,134,178,185,139,144,137,138,191,155,173,146,148,194,176,195,163,147,171,152,151,182,157,156,210,188,239,172,174,169,164,235,165,179,229,219,204,186,186,170,212,235,184,231,196,184,217,190,194,181,206,217,203,237,201,217,239,215,239,216,215,209,234,202,213,198,210,214,201,203,206,211,225,210,227,224,213,230,219,211,212,216,215,240,237,228,221,231,228,221,226,224,240,227,225,226,236,232,232,238,234,232,237,236,234,235,236,238,240,0,0,0,253,244,245,246,248,262,256,255,251,254,298,305,259,264,257,258,311,275,293,266,268,314,296,315,283,267,291,272,271,302,277,276,330,308,359,292,294,289,284,355,285,299,349,339,324,306,306,290,332,355,304,351,316,304,337,310,314,301,326,337,323,357,321,337,359,335,359,336,335,329,354,322,333,318,330,334,321,323,326,331,345,330,347,344,333,350,339,331,332,336,335,360,357,348,341,351,348,341,346,344,360,347,345,346,356,352,352,358,354,352,357,356,354,355,356,358,360,0,0,0,442,365,364,366,374,369,370,373,390,385,372,380,387,375,376,390,386,410,411,381,404,383,398,419,423,429,389,430,436,393,395,458,430,396,401,450,437,406,464,405,454,444,440,448,420,408,411,479,416,428,423,452,451,448,435,455,424,421,441,439,473,438,426,458,453,434,443,476,445,442,469,474,456,475,464,442,457,450,467,445,455,452,466,453,463,467,458,465,456,462,470,459,479,455,460,461,470,475,477,463,463,479,477,473,474,472,469,473,478,474,478,480,476,476,480,477,478,0,0,0,487,484,485,486,524,489,575,505,495,493,496,520,497,516,540,513,554,541,511,503,563,506,515,509,517,596,508,557,533,512,514,569,584,527,542,521,562,525,528,522,568,539,526,535,526,591,560,533,532,550,535,560,534,549,561,574,570,551,548,569,585,587,544,576,600,594,589,574,585,553,590,563,599,567,556,560,579,581,565,587,577,575,593,599,583,584,583,595,590,582,578,573,591,600,588,577,579,581,586,582,588,598,585,592,598,592,594,594,590,591,596,593,598,597,596,599,600,0,0,0,611,604,605,610,606,618,608,647,624,616,619,626,672,643,640,617,652,620,642,622,628,694,635,671,662,657,631,714,632,634,637,638,666,655,645,712,641,658,662,688,716,645,709,646,656,682,708,679,650,684,709,690,696,694,692,678,680,697,673,668,676,691,671,666,669,691,695,714,702,678,702,677,696,690,676,714,692,706,696,690,700,685,697,705,687,695,694,711,691,708,717,706,701,699,711,710,711,702,705,710,713,703,712,713,706,708,720,719,716,715,712,715,716,720,719,719,718,0,0,0,733,724,725,726,728,742,736,735,731,734,778,785,739,744,737,738,791,755,773,746,748,794,776,795,763,747,771,752,751,782,757,756,810,788,839,772,774,769,764,835,765,779,829,819,804,786,786,770,812,835,784,831,796,784,817,790,794,781,806,817,803,837,801,817,839,815,839,816,815,809,834,802,813,798,810,814,801,803,806,811,825,810,827,824,813,830,819,811,812,816,815,840,837,828,821,831,828,821,826,824,840,827,825,826,836,832,832,838,834,832,837,836,834,835,836,838,840,0,0,0,853,844,845,846,848,862,856,855,851,854,898,905,859,864,857,858,911,875,893,866,868,914,896,915,883,867,891,872,871,902,877,876,930,908,959,892,894,889,884,955,885,899,949,939,924,906,906,890,932,955,904,951,916,904,937,910,914,901,926,937,923,957,921,937,959,935,959,936,935,929,954,922,933,918,930,934,921,923,926,931,945,930,947,944,933,950,939,931,932,936,935,960,957,948,941,951,948,941,946,944,960,947,945,946,956,952,952,958,954,952,957,956,954,955,956,958,960,0,0,0,1042,965,964,966,974,969,970,973,990,985,972,980,987,975,976,990,986,1010,1011,981,1004,983,998,1019,1023,1029,989,1030,1036,993,995,1058,1030,996,1001,1050,1037,1006,1064,1005,1054,1044,1040,1048,1020,1008,1011,1079,1016,1028,1023,1052,1051,1048,1035,1055,1024,1021,1041,1039,1073,1038,1026,1058,1053,1034,1043,1076,1045,1042,1069,1074,1056,1075,1064,1042,1057,1050,1067,1045,1055,1052,1066,1053,1063,1067,1058,1065,1056,1062,1070,1059,1079,1055,1060,1061,1070,1075,1077,1063,1063,1079,1077,1073,1074,1072,1069,1073,1078,1074,1078,1080,1076,1076,1080,1077,1078,0,0,0,1087,1084,1085,1086,1124,1089,1175,1105,1095,1093,1096,1120,1097,1116,1140,1113,1154,1141,1111,1103,1163,1106,1115,1109,1117,1196,1108,1157,1133,1112,1114,1169,1184,1127,1142,1121,1162,1125,1128,1122,1168,1139,1126,1135,1126,1191,1160,1133,1132,1150,1135,1160,1134,1149,1161,1174,1170,1151,1148,1169,1185,1187,1144,1176,1200,1194,1189,1174,1185,1153,1190,1163,1199,1167,1156,1160,1179,1181,1165,1187,1177,1175,1193,1199,1183,1184,1183,1195,1190,1182,1178,1173,1191,1200,1188,1177,1179,1181,1186,1182,1188,1198,1185,1192,1198,1192,1194,1194,1190,1191,1196,1193,1198,1197,1196,1199,1200,0,0,0
2, 19, 95 , 7, 11, 60 , 20, 15,0, 30, 32, 46, 87 ,0, 73, 33, 47,0, 45, 29, 67 , 68,0, 37,0,0, 104 ,0,0,0,0, 71,0, 90 , 76 , 119 ,0, 55 ,0,0,0, 43,0,0,0, 58 ,0,0,0,0,0, 117 ,0,0,0,0,0,0,0,0,0, 94 , 91 ,0,0, 92 ,0, 116 ,0,0, 98 ,0, 85,0,0,0,0,0,0,0,0, 100,0,0,0,0, 90, 96 ,0,0,0,0,0,0,0,0, 117 ,0,0, 114 ,0,0,0,0,0,0, 118 ,0,0,0,0,0,0,0,0,0,0,0,0,0,0,177,145,127,130,129,0,143,0,0,141,205,204,179,193,187,168,0,161,219,154,181,0,0,0,167,150,0,199,158,197,160,216,0,233,0,0,0,195,166,0,0,0,0,0,0,0,191,0,0,0,208,0,0,0,0,207,0,0,222,0,0,0,0,0,0,227,0,0,0,0,0,0,0,0,0,0,0,0,0,0,0,0,0,0,0,0,0,0,0,218,0,0,0,0,0,0,0,0,233,0,0,230,0,230,0,0,0,0,0,0,0,0,0,0,0,0,0,0,0,0,297,265,247,250,249,0,263,0,0,261,325,324,299,313,307,288,0,281,339,274,301,0,0,0,287,270,0,319,278,317,280,336,0,353,0,0,0,315,286,0,0,0,0,0,0,0,311,0,0,0,328,0,0,0,0,327,0,0,342,0,0,0,0,0,0,347,0,0,0,0,0,0,0,0,0,0,0,0,0,0,0,0,0,0,0,0,0,0,0,338,0,0,0,0,0,0,0,0,353,0,0,350,0,350,0,0,0,0,0,0,0,0,0,0,0,0,0,0,0,0,0,367,388,413,377,392,371,0,407,391,0,402,403,378,409,0,427,0,441,0,0,400,412,0,429,0,399,433,0,397,431,0,0,447,0,0,462,422,0,0,0,465,0,0,445,417,0,0,467,0,0,465,0,0,457,0,0,432,452,0,0,0,0,0,0,435,0,0,0,0,0,0,0,0,472,0,0,0,0,475,0,0,0,461,0,0,0,0,0,0,471,469,0,462,0,0,0,0,0,468,0,0,0,0,0,0,0,0,0,0,0,0,0,0,0,0,0,0,0,0,498,491,518,488,566,490,0,515,499,494,543,529,504,574,0,597,0,588,595,510,580,531,525,573,546,0,553,0,575,0,530,0,0,592,547,545,0,0,564,528,0,0,0,0,536,0,0,0,578,571,0,0,561,559,0,0,0,0,562,0,0,0,0,583,0,0,0,0,0,0,0,0,0,0,0,0,0,0,0,0,0,595,0,0,0,0,0,0,593,0,0,0,0,0,0,582,0,0,0,589,0,0,0,0,0,0,0,0,0,0,0,0,0,0,0,0,0,0,0,0,615,613,607,0,609,686,612,653,663,661,700,628,679,683,654,621,705,625,651,623,0,0,649,0,700,703,639,0,667,0,0,686,0,670,659,0,675,0,0,0,0,0,0,715,0,0,0,681,663,698,0,0,0,0,0,0,0,0,0,0,0,0,685,0,0,0,0,0,0,0,0,0,0,0,709,0,0,720,0,693,707,0,0,0,0,0,0,0,0,0,0,0,0,713,0,0,0,0,0,0,0,0,0,0,0,0,0,0,0,0,0,0,0,0,0,0,0,0,0,0,777,745,727,730,729,0,743,0,0,741,805,804,779,793,787,768,0,761,819,754,781,0,0,0,767,750,0,799,758,797,760,816,0,833,0,0,0,795,766,0,0,0,0,0,0,0,791,0,0,0,808,0,0,0,0,807,0,0,822,0,0,0,0,0,0,827,0,0,0,0,0,0,0,0,0,0,0,0,0,0,0,0,0,0,0,0,0,0,0,818,0,0,0,0,0,0,0,0,833,0,0,830,0,830,0,0,0,0,0,0,0,0,0,0,0,0,0,0,0,0,897,865,847,850,849,0,863,0,0,861,925,924,899,913,907,888,0,881,939,874,901,0,0,0,887,870,0,919,878,917,880,936,0,953,0,0,0,915,886,0,0,0,0,0,0,0,911,0,0,0,928,0,0,0,0,927,0,0,942,0,0,0,0,0,0,947,0,0,0,0,0,0,0,0,0,0,0,0,0,0,0,0,0,0,0,0,0,0,0,938,0,0,0,0,0,0,0,0,953,0,0,950,0,950,0,0,0,0,0,0,0,0,0,0,0,0,0,0,0,0,0,967,988,1013,977,992,971,0,1007,991,0,1002,1003,978,1009,0,1027,0,1041,0,0,1000,1012,0,1029,0,999,1033,0,997,1031,0,0,1047,0,0,1062,1022,0,0,0,1065,0,0,1045,1017,0,0,1067,0,0,1065,0,0,1057,0,0,1032,1052,0,0,0,0,0,0,1035,0,0,0,0,0,0,0,0,1072,0,0,0,0,1075,0,0,0,1061,0,0,0,0,0,0,1071,1069,0,1062,0,0,0,0,0,1068,0,0,0,0,0,0,0,0,0,0,0,0,0,0,0,0,0,0,0,0,1098,1091,1118,1088,1166,1090,0,1115,1099,1094,1143,1129,1104,1174,0,1197,0,1188,1195,1110,1180,1131,1125,1173,1146,0,1153,0,1175,0,1130,0,0,1192,1147,1145,0,0,1164,1128,0,0,0,0,1136,0,0,0,1178,1171,0,0,1161,1159,0,0,0,0,1162,0,0,0,0,1183,0,0,0,0,0,0,0,0,0,0,0,0,0,0,0,0,0,1195,0,0,0,0,0,0,1193,0,0,0,0,0,0,1182,0,0,0,1189,0,0,0,0,0,0,0,0,0,0,0,0,0,0,0,0,0,0,0,0
3, 21 ,0, 26 , 12 ,0, 27 , 44 ,0, 35 , 103 , 82 ,0,0, 81 , 64 , 59 ,0, 57 , 63 ,0, 78 ,0, 41 ,0,0,0,0,0,0,0, 105 ,0,0,0,0,0,0,0,0,0, 66 ,0,0,0,0,0,0,0,0,0,0,0,0,0,0,0,0,0,0,0,0,0,0,0,0,0,0,0,0,0,0, 97 ,0,0,0,0,0,0,0,0, 105 ,0,0,0,0, 109 ,0,0,0,0,0,0,0,0,0,0,0,0,0,0,0,0,0,0,0,0,0,0,0,0,0,0,0,0,0,0,0,0,0,0,192,162,132,140,149,0,220,0,0,153,218,0,195,238,0,231,0,189,223,159,183,0,0,0,180,200,0,0,226,203,175,233,0,0,0,0,0,228,174,0,0,0,0,0,0,0,198,0,0,0,0,0,0,0,0,0,0,0,0,0,0,0,0,0,0,0,0,0,0,0,0,0,0,0,0,0,0,0,0,0,0,0,0,0,0,0,0,0,0,0,0,0,0,0,0,0,0,0,0,0,0,0,0,0,0,0,0,0,0,0,0,0,0,0,0,0,0,0,0,0,312,282,252,260,269,0,340,0,0,273,338,0,315,358,0,351,0,309,343,279,303,0,0,0,300,320,0,0,346,323,295,353,0,0,0,0,0,348,294,0,0,0,0,0,0,0,318,0,0,0,0,0,0,0,0,0,0,0,0,0,0,0,0,0,0,0,0,0,0,0,0,0,0,0,0,0,0,0,0,0,0,0,0,0,0,0,0,0,0,0,0,0,0,0,0,0,0,0,0,0,0,0,0,0,0,0,0,0,0,0,0,0,0,0,0,0,0,0,0,0,0,368,468,453,384,394,382,0,418,414,0,446,415,379,0,0,449,0,0,0,0,434,425,0,0,0,438,439,0,471,0,0,0,0,0,0,0,0,0,0,0,470,0,0,0,0,0,0,0,0,0,0,0,0,0,0,0,0,0,0,0,0,0,0,0,0,0,0,0,0,0,0,0,0,0,0,0,0,0,0,0,0,0,0,0,0,0,0,0,0,0,480,0,0,0,0,0,0,0,472,0,0,0,0,0,0,0,0,0,0,0,0,0,0,0,0,0,0,0,0,523,492,519,502,0,500,0,538,555,501,558,0,507,577,0,0,0,0,0,537,0,0,534,0,572,0,589,0,0,0,538,0,0,0,570,0,0,0,0,552,0,0,0,0,548,0,0,0,0,0,0,0,0,0,0,0,0,0,0,0,0,0,0,0,0,0,0,0,0,0,0,0,0,0,0,0,0,0,0,0,0,0,0,0,0,0,0,0,0,0,0,0,0,0,0,0,0,0,0,0,0,0,0,0,0,0,0,0,0,0,0,0,0,0,0,0,0,0,0,0,648,618,629,0,614,0,636,676,665,673,0,677,693,689,0,633,717,627,660,630,0,0,664,0,704,0,644,0,0,0,0,0,0,674,718,0,0,0,0,0,0,0,0,0,0,0,0,0,0,0,0,0,0,0,0,0,0,0,0,0,0,0,692,0,0,0,0,0,0,0,0,0,0,0,0,0,0,0,0,0,0,0,0,0,0,0,0,0,0,0,0,0,0,0,0,0,0,0,0,0,0,0,0,0,0,0,0,0,0,0,0,0,0,0,0,0,0,0,0,0,792,762,732,740,749,0,820,0,0,753,818,0,795,838,0,831,0,789,823,759,783,0,0,0,780,800,0,0,826,803,775,833,0,0,0,0,0,828,774,0,0,0,0,0,0,0,798,0,0,0,0,0,0,0,0,0,0,0,0,0,0,0,0,0,0,0,0,0,0,0,0,0,0,0,0,0,0,0,0,0,0,0,0,0,0,0,0,0,0,0,0,0,0,0,0,0,0,0,0,0,0,0,0,0,0,0,0,0,0,0,0,0,0,0,0,0,0,0,0,0,912,882,852,860,869,0,940,0,0,873,938,0,915,958,0,951,0,909,943,879,903,0,0,0,900,920,0,0,946,923,895,953,0,0,0,0,0,948,894,0,0,0,0,0,0,0,918,0,0,0,0,0,0,0,0,0,0,0,0,0,0,0,0,0,0,0,0,0,0,0,0,0,0,0,0,0,0,0,0,0,0,0,0,0,0,0,0,0,0,0,0,0,0,0,0,0,0,0,0,0,0,0,0,0,0,0,0,0,0,0,0,0,0,0,0,0,0,0,0,0,0,968,1068,1053,984,994,982,0,1018,1014,0,1046,1015,979,0,0,1049,0,0,0,0,1034,1025,0,0,0,1038,1039,0,1071,0,0,0,0,0,0,0,0,0,0,0,1070,0,0,0,0,0,0,0,0,0,0,0,0,0,0,0,0,0,0,0,0,0,0,0,0,0,0,0,0,0,0,0,0,0,0,0,0,0,0,0,0,0,0,0,0,0,0,0,0,0,1080,0,0,0,0,0,0,0,1072,0,0,0,0,0,0,0,0,0,0,0,0,0,0,0,0,0,0,0,0,1123,1092,1119,1102,0,1100,0,1138,1155,1101,1158,0,1107,1177,0,0,0,0,0,1137,0,0,1134,0,1172,0,1189,0,0,0,1138,0,0,0,1170,0,0,0,0,1152,0,0,0,0,1148,0,0,0,0,0,0,0,0,0,0,0,0,0,0,0,0,0,0,0,0,0,0,0,0,0,0,0,0,0,0,0,0,0,0,0,0,0,0,0,0,0,0,0,0,0,0,0,0,0,0,0,0,0,0,0,0,0,0,0,0,0,0,0,0,0,0,0,0,0,0,0,0,0,0,0
